row=9;
Board=[|6,0,2,4,3,0,10,9,0,5|0,0,9,8,1,5,3,2,6,0|0,6,7,2,3,4,1,10,9,8|3,2,0,0,6,0,9,7,4,1|1,7,4,10,2,8,6,5,3,9|8,5,1,0,9,0,2,4,6,10|9,10,4,8,1,5,0,0,7,2|5,3,7,9,10,4,2,8,6,0|10,4,8,2,0,0,6,1,9,0|];
bottom=[2268000,1612800,903168,1382400,29160,7840000,233280,604800,1469664
,504000]